experiment/data/lkh-res/Vrp-Set-P-n60/Vrp-Set-P-n60-lkh/1.lkh1.log
PARAMETER_FILE = baseline_results/cvrp_lkh/Vrp-Set-P-n60/Vrp-Set-P-n60-lkh/1.lkh1.par
Reading PROBLEM_FILE: "baseline_results/cvrp_lkh/Vrp-Set-P-n60/Vrp-Set-P-n60-lkh/1.lkh1.vrp" ... done
ASCENT_CANDIDATES = 50
BACKBONE_TRIALS = 0
BACKTRACKING = NO
# BWTSP =
# CANDIDATE_FILE =
CANDIDATE_SET_TYPE = ALPHA
# DISTANCE =
DEPOT = 1
# EDGE_FILE =
EXCESS = 0.0166667
EXTERNAL_SALESMEN = 0
EXTRA_CANDIDATES = 0 
EXTRA_CANDIDATE_SET_TYPE = QUADRANT
GAIN23 = NO
GAIN_CRITERION = YES
INITIAL_PERIOD = 100
INITIAL_STEP_SIZE = 1
INITIAL_TOUR_ALGORITHM = WALK
# INITIAL_TOUR_FILE = 
INITIAL_TOUR_FRACTION = 1.000
# INPUT_TOUR_FILE = 
KICK_TYPE = 4
KICKS = 1
# MAX_BREADTH =
MAKESPAN = NO
MAX_CANDIDATES = 5 
MAX_SWAPS = 0
MAX_TRIALS = 10000
# MERGE_TOUR_FILE =
MOVE_TYPE = 5 SPECIAL
MTSP_MIN_SIZE = 1
MTSP_MAX_SIZE = 59
# MTSP_SOLUTION_FILE = 
# NONSEQUENTIAL_MOVE_TYPE = 5
# OPTIMUM =
OUTPUT_TOUR_FILE = baseline_results/cvrp_lkh/Vrp-Set-P-n60/Vrp-Set-P-n60-lkh/1.lkh1.tour
PATCHING_A = 1 
PATCHING_C = 0 
# PI_FILE = 
POPMUSIC_INITIAL_TOUR = NO
POPMUSIC_MAX_NEIGHBORS = 5
POPMUSIC_SAMPLE_SIZE = 10
POPMUSIC_SOLUTIONS = 50
POPMUSIC_TRIALS = 1
POPULATION_SIZE = 10
PRECISION = 100
PROBLEM_FILE = baseline_results/cvrp_lkh/Vrp-Set-P-n60/Vrp-Set-P-n60-lkh/1.lkh1.vrp
RECOMBINATION = IPT
RESTRICTED_SEARCH = YES
RUNS = 1
SALESMEN = 15
SCALE = 1
SEED = 1234
# SINTEF_SOLUTION_FILE = 
STOP_AT_OPTIMUM = YES
SUBGRADIENT = YES
# SUBPROBLEM_SIZE =
# SUBPROBLEM_TOUR_FILE = 
SUBSEQUENT_MOVE_TYPE = 5 SPECIAL
SUBSEQUENT_PATCHING = YES
# TIME_LIMIT =
# TOTAL_TIME_LIMIT =
# TOUR_FILE = 
TRACE_LEVEL = 1
VEHICLES = 15

Lower bound = 71296.0, Ascent time = 0.01 sec.
Cand.min = 5, Cand.avg = 5.0, Cand.max = 5
Preprocessing time = 0.01 sec.
* 1: Cost = 0_103492, Time = 0.01 sec. 
Writing OUTPUT_TOUR_FILE: "baseline_results/cvrp_lkh/Vrp-Set-P-n60/Vrp-Set-P-n60-lkh/1.lkh1.tour" ... done
* 2: Cost = 0_101925, Time = 0.03 sec. 
Writing OUTPUT_TOUR_FILE: "baseline_results/cvrp_lkh/Vrp-Set-P-n60/Vrp-Set-P-n60-lkh/1.lkh1.tour" ... done
* 3: Cost = 0_101038, Time = 0.03 sec. 
Writing OUTPUT_TOUR_FILE: "baseline_results/cvrp_lkh/Vrp-Set-P-n60/Vrp-Set-P-n60-lkh/1.lkh1.tour" ... done
* 4: Cost = 0_100018, Time = 0.03 sec. 
Writing OUTPUT_TOUR_FILE: "baseline_results/cvrp_lkh/Vrp-Set-P-n60/Vrp-Set-P-n60-lkh/1.lkh1.tour" ... done
* 7: Cost = 0_99585, Time = 0.04 sec. 
Writing OUTPUT_TOUR_FILE: "baseline_results/cvrp_lkh/Vrp-Set-P-n60/Vrp-Set-P-n60-lkh/1.lkh1.tour" ... done
* 9: Cost = 0_99333, Time = 0.04 sec. 
Writing OUTPUT_TOUR_FILE: "baseline_results/cvrp_lkh/Vrp-Set-P-n60/Vrp-Set-P-n60-lkh/1.lkh1.tour" ... done
* 16: Cost = 0_98327, Time = 0.07 sec. 
Writing OUTPUT_TOUR_FILE: "baseline_results/cvrp_lkh/Vrp-Set-P-n60/Vrp-Set-P-n60-lkh/1.lkh1.tour" ... done
* 30: Cost = 0_98307, Time = 0.14 sec. 
Writing OUTPUT_TOUR_FILE: "baseline_results/cvrp_lkh/Vrp-Set-P-n60/Vrp-Set-P-n60-lkh/1.lkh1.tour" ... done
* 31: Cost = 0_97794, Time = 0.14 sec. 
Writing OUTPUT_TOUR_FILE: "baseline_results/cvrp_lkh/Vrp-Set-P-n60/Vrp-Set-P-n60-lkh/1.lkh1.tour" ... done
* 39: Cost = 0_97763, Time = 0.18 sec. 
Writing OUTPUT_TOUR_FILE: "baseline_results/cvrp_lkh/Vrp-Set-P-n60/Vrp-Set-P-n60-lkh/1.lkh1.tour" ... done
* 47: Cost = 0_97601, Time = 0.21 sec. 
Writing OUTPUT_TOUR_FILE: "baseline_results/cvrp_lkh/Vrp-Set-P-n60/Vrp-Set-P-n60-lkh/1.lkh1.tour" ... done
* 293: Cost = 0_97516, Time = 1.36 sec. 
Writing OUTPUT_TOUR_FILE: "baseline_results/cvrp_lkh/Vrp-Set-P-n60/Vrp-Set-P-n60-lkh/1.lkh1.tour" ... done
* 303: Cost = 0_97361, Time = 1.40 sec. 
Writing OUTPUT_TOUR_FILE: "baseline_results/cvrp_lkh/Vrp-Set-P-n60/Vrp-Set-P-n60-lkh/1.lkh1.tour" ... done
* 847: Cost = 0_97349, Time = 4.38 sec. 
Writing OUTPUT_TOUR_FILE: "baseline_results/cvrp_lkh/Vrp-Set-P-n60/Vrp-Set-P-n60-lkh/1.lkh1.tour" ... done
* 900: Cost = 0_97156, Time = 4.66 sec. 
Writing OUTPUT_TOUR_FILE: "baseline_results/cvrp_lkh/Vrp-Set-P-n60/Vrp-Set-P-n60-lkh/1.lkh1.tour" ... done
Population:
  1: 0_97156
Run 1: Cost = 0_97156, Time = 46.36 sec. 

Successes/Runs = 0/1 
Cost.min = 97156, Cost.avg = 97156.00, Cost.max = 97156
Gap.min = 0.0000%, Gap.avg = 0.0000%, Gap.max = 0.0000%
Penalty.min = 0, Penalty.avg = 0.00, Penalty.max = 0
Trials.min = 10000, Trials.avg = 10000.0, Trials.max = 10000
Time.min = 46.36 sec., Time.avg = 46.36 sec., Time.max = 46.36 sec.
Time.total = 46.38 sec.
  Size.min = 3, Size.max = 5, Penalty = 0
  Cost.min = 3195, Cost.max = 9312, Cost.sum = 97156
Best CVRP solution:
  Cost = 0_97156

