experiment/data/lkh-res/Vrp-Set-P-n60/Vrp-Set-P-n60-lkh/1.lkh1.tour
NAME : 1.97156.tour
COMMENT : Length = 97156
COMMENT : Found by LKH-3 [Keld Helsgaun] Tue Apr  9 02:41:15 2024
TYPE : TOUR
DIMENSION : 74
TOUR_SECTION
1
5
46
30
65
54
12
59
71
31
29
3
73
22
37
48
49
63
35
47
8
27
74
9
55
14
28
53
69
45
51
19
56
26
61
18
41
13
67
40
10
33
62
7
34
17
52
64
20
60
15
36
68
6
38
21
16
58
70
2
44
42
43
23
66
24
57
50
25
4
72
39
11
32
-1
EOF
